/*objective function */

Min: 622xa1 + 614xa2 + 630xa3 + 641xb1 + 645xb2 + 649xb3 + 0xad + 0xbd  ;

/* Constraints */
  
xa1 + xa2 + xa3  + xad = 100;
xb1 + xb2 + xb3 + xbd = 120;
xa1 + xb1 = 80;
xa2 + xb2 = 60;
xa3 + xb3 = 70;
xad + xbd = 10;

